c   #vars: 44   #clauses: 183   #literals: 520
c 
p cnf 44 183
-1 -2 0
-3 -4 0
17 -38 40 41 0
5 6 34 35 0
-5 -6 0
12 -24 26 27 0
-8 -9 0
-10 -11 0
17 38 39 -40 0
-13 -14 0
-15 -16 0
13 14 40 41 0
1 2 -13 44 0
-18 -19 0
-20 -21 0
-22 -23 0
-24 -25 0
-26 -27 0
-10 28 29 31 0
-28 -29 0
-8 -9 -20 30 0
-32 -33 0
-34 -35 0
-36 -37 0
-38 -39 0
8 9 42 43 0
-40 -41 0
1 2 38 39 0
-42 -43 0
28 29 32 33 0
7 36 37 -40 0
3 4 18 19 0
-1 -20 0
-2 -21 0
18 19 -20 30 0
-1 -22 0
-2 -23 0
3 4 38 39 0
-1 -34 0
-2 -35 0
13 14 -36 -37 0
-1 -38 0
-2 -39 0
-2 -44 0
-3 -18 0
-4 -19 0
-10 26 27 31 0
-3 -26 0
-4 -27 0
24 25 42 43 0
-3 -28 0
-4 -29 0
3 4 26 27 0
-3 -38 0
-4 -39 0
10 11 -28 31 0
-28 -29 31 0
10 11 -26 31 0
-5 -22 0
-6 -23 0
-1 13 14 44 0
-5 -34 0
-6 -35 0
10 11 36 37 0
-5 -40 0
-6 -41 0
10 11 32 33 0
-6 -44 0
15 16 32 33 0
12 -20 26 27 0
-7 -23 0
28 29 42 43 0
12 20 21 -26 0
-7 -37 0
22 23 34 35 0
12 20 21 -24 0
-7 -41 0
-8 -18 0
-9 -19 0
-8 -24 0
-9 -25 0
18 19 40 41 0
-18 20 21 30 0
7 -36 40 41 0
-9 -30 0
1 2 34 35 0
-8 -42 0
-9 -43 0
5 6 40 41 0
7 22 23 -40 0
12 -20 24 25 0
1 2 -5 44 0
-11 -17 0
-10 17 40 41 0
-8 -9 -18 30 0
-11 -31 0
12 24 25 -26 0
-10 -32 0
-11 -33 0
-26 28 29 31 0
-10 -36 0
-11 -37 0
8 9 -18 30 0
-10 17 38 39 0
-12 -21 0
10 11 17 -40 0
-12 -25 0
24 25 32 33 0
10 11 17 -38 0
-12 -27 0
8 9 -24 -25 0
-13 -20 0
-14 -21 0
13 14 20 21 0
-13 -24 0
-14 -25 0
1 2 20 21 0
-13 -40 0
-14 -41 0
8 9 24 25 0
-14 -44 0
8 9 -20 30 0
-15 -18 0
-16 -19 0
5 6 22 23 0
-15 -28 0
-16 -29 0
13 14 24 25 0
-15 -32 0
-16 -33 0
15 16 18 19 0
-15 -34 0
-16 -35 0
15 16 28 29 0
5 6 -13 44 0
-17 -39 0
7 -22 36 37 0
-1 5 6 44 0
-17 -41 0
7 -22 40 41 0
-19 -30 0
3 4 28 29 0
-18 -38 0
-19 -39 0
-18 -40 0
-19 -41 0
26 27 -28 31 0
-8 -9 24 25 0
-21 -30 0
1 2 22 23 0
-20 -36 0
-21 -37 0
-5 13 14 44 0
-22 -34 0
-23 -35 0
26 27 42 43 0
-22 -36 0
-23 -37 0
22 23 36 37 0
-24 -32 0
-25 -33 0
-24 -42 0
-25 -43 0
18 19 38 39 0
7 22 23 -36 0
-8 -9 30 0
-27 -31 0
26 27 32 33 0
-26 -32 0
-27 -33 0
-8 18 19 30 0
-26 -42 0
-27 -43 0
8 9 18 19 0
-8 20 21 30 0
15 16 34 35 0
-13 -14 36 37 0
-29 -31 0
20 21 36 37 0
-28 -32 0
-29 -33 0
-28 -42 0
-29 -43 0
